# Objective value = 95603
x66 0
x67 0
x68 1
x69 0
x70 1
x71 1
x72 1
x73 0
x74 0
x75 0
x76 0
x77 1
x78 1
x79 1
x80 0
x81 1
x82 0
x83 0
x84 0
x85 1
x86 0
x87 0
x88 1
x89 1
x90 1
x91 0
x92 1
x93 0
x94 0
x95 1
x96 1
x97 1
x98 0
x99 1
x100 0
x101 1
x102 1
x103 0
x104 0
x105 0
x106 1
x107 0
x108 1
x109 0
x110 0
x111 0
x112 1
x113 1
x114 1
x115 0
x116 1
x117 0
x118 1
x119 1
x120 0
x121 0
x122 1
x123 1
x124 1
x125 0
x126 1
x127 0
x128 1
x129 1
x130 0
x131 1
x132 0
x133 1
x134 1
x135 1
x136 0
x137 1
x138 0
x139 1
x140 1
x141 0
x142 1
x143 1
x144 0
x145 1
x146 1
x147 1
x148 0
x149 1
x150 0
x151 1
x152 1
x153 0
x154 1
x155 1
x156 1
x157 0
x158 1
x159 1
x160 1
x161 0
x162 1
x163 0
x164 1
x165 1
x166 0
x167 1
x168 1
x169 1
x170 1
x171 1
x172 0
x173 0
x174 0
x175 1
x176 0
x177 1
x178 0
x179 0
x180 1
x181 0
x182 0
x183 0
x184 0
x185 0
x186 0
x187 1
x188 1
x189 1
x190 0
x191 1
x192 0
x193 1
x194 1
x195 0
x196 1
x197 1
x198 1
x199 1
x200 1
x201 0
x202 0
x203 1
x204 1
x205 1
x206 0
x207 0
x208 1
x209 0
x210 1
x211 1
x212 1
x213 0
x214 1
x215 1
x216 1
x217 1
x218 0
x219 0
x220 0
x221 1
x222 0
x223 1
x224 0
x225 0
x226 0
x227 1
x228 1
x229 1
x230 0
x231 1
x232 1
x233 1
x234 1
x235 0
x236 1
x237 0
x238 1
x239 0
x240 0
x241 1
x242 0
x243 0
x244 0
x245 1
x246 0
x247 0
x248 1
x249 0
x250 1
x251 1
x252 1
x253 1
x254 1
x255 1
x256 0
x257 1
x258 0
x259 0
x260 1
x261 0
x262 1
x263 1
x264 1
x265 0
x266 1
x267 1
x268 0
x269 1
x270 0
x271 1
x272 0
x273 1
x274 0
x275 1
x276 1
x277 1
x278 1
x279 1
x280 1
x281 0
x282 1
x283 0
x284 1
x285 1
x286 0
x287 1
x288 1
x289 0
x290 1
x291 1
x292 1
x293 1
x294 1
x295 0
x296 1
x297 0
x298 1
x299 1
x300 1
x301 0
x302 1
x303 0
x304 0
x305 1
x306 1
x307 1
x308 1
x309 1
x310 0
x311 1
x312 0
x313 1
x314 1
x315 1
x316 1
x317 0
x318 1
x319 1
x320 0
x321 1
x322 1
x323 1
x324 1
x325 1
x326 0
x327 1
x328 0
x329 1
x330 1
x331 1
x332 1
x333 1
x334 1
x335 1
x336 0
x337 1
x338 0
x339 0
x340 0
x341 0
x342 0
x343 1
x344 0
x345 1
x346 0
x347 0
x348 0
x349 0
x350 0
x351 0
x352 0
x353 1
x354 1
x355 1
x356 1
x357 0
x358 1
x359 1
x360 1
x361 0
x362 1
x363 0
x364 1
x365 1
x366 1
x367 1
x368 1
x369 1
x370 0
x371 1
x372 0
x373 1
x374 0
x375 0
x376 1
x377 0
x378 0
x379 0
x380 1
x381 0
x382 1
x383 0
x384 0
x385 0
x386 0
x387 0
x388 0
x389 1
x390 0
x391 0
x392 1
x393 1
x394 1
x395 1
x396 0
x397 1
x398 1
x399 1
x400 0
x401 1
x402 0
x403 1
x404 1
x405 1
x406 1
x407 1
x408 1
x409 0
x410 1
x411 0
x412 0
x413 0
x414 1
x415 1
x416 1
x417 0
x418 1
x419 1
x420 1
x421 0
x422 1
x423 0
x424 1
x425 1
x426 1
x427 1
x428 1
x429 1
x430 0
x431 1
x432 0
x433 1
x434 1
x435 0
x436 0
x437 0
x438 1
x439 0
x440 0
x441 0
x442 1
x443 0
x444 1
x445 0
x446 1
x447 1
x448 1
x449 0
x450 0
x451 1
x452 1
x453 0
x454 1
x455 1
x456 0
x457 0
x458 1
x459 1
x460 1
x461 0
x462 1
x463 1
x464 1
x465 0
x466 1
x467 1
x468 0
x469 1
x470 0
x471 1
x472 1
x473 1
x474 0
x475 1
x476 1
x477 1
x478 0
x479 1
x480 1
x481 0
x482 1
x483 1
x484 0
x485 1
x486 1
x487 0
x488 1
x489 1
x490 1
x491 0
x492 1
x493 1
x494 1
x495 0
x496 1
x497 1
x498 1
x499 0
x500 1
x501 1
x502 0
x503 1
x504 1
x505 1
x506 0
x507 1
x508 1
x509 1
x510 0
x511 1
x512 1
x513 1
x514 1
x515 1
x516 0
x517 0
x518 1
x519 0
x520 0
x521 1
x522 1
x523 0
x524 0
x525 0
x526 1
x527 0
x528 0
x529 0
x530 0
x531 0
x532 0
x533 0
x534 1
x535 0
x536 1
x537 1
x538 1
x539 0
x540 1
x541 1
x542 1
x543 0
x544 1
x545 1
x546 1
x547 1
x548 1
x549 0
x550 0
x551 0
x552 1
x553 1
x554 1
x555 1
x556 1
x557 1
x558 1
x559 0
x560 1
x561 0
x562 1
x563 1
x564 1
x565 1
x566 1
x567 0
x568 1
x569 1
x570 1
x571 0
x572 0
x573 0
x574 0
x575 0
x576 0
x577 0
x578 1
x579 1
x580 1
x581 0
x582 0
x583 0
x584 0
x585 0
x586 1
x587 0
x588 0
x589 0
x590 0
x591 1
x592 1
x593 1
x594 0
x595 1
x596 1
x597 1
x598 0
x599 1
x600 0
x601 1
x602 1
x603 1
x604 1
x605 1
x606 0
x607 1
x608 1
x609 0
x610 0
x611 0
x612 1
x613 1
x614 1
x615 1
x616 1
x617 1
x618 1
x619 0
x620 1
x621 0
x622 1
x623 1
x624 1
x625 1
x626 1
x627 0
x628 1
x629 1
x630 0
x631 1
x632 0
x633 0
x634 1
x635 1
x636 0
x637 1
x638 1
x639 1
x640 0
x641 1
x642 1
x643 0
x644 1
x645 1
x646 1
x647 1
x648 1
x649 0
x650 1
x651 1
x652 0
x653 1
x654 1
x655 0
x656 1
x657 1
x658 1
x659 0
x660 1
x661 1
x662 1
x663 0
x664 1
x665 1
x666 0
x667 1
x668 1
x669 1
x670 1
x671 1
x672 0
x673 1
x674 1
x675 0
x676 1
x677 1
x678 1
x679 0
x680 1
x681 1
x682 1
x683 0
x684 1
x685 1
x686 1
x687 0
x688 1
x689 1
x690 0
x691 1
x692 1
x693 1
x694 1
x695 1
x696 0
x697 1
x698 1
x699 0
x700 1
x701 1
x702 1
x703 1
x704 1
x705 0
x706 0
x707 0
x708 1
x709 0
x710 1
x711 0
x712 1
x713 0
x714 0
x715 1
x716 0
x717 0
x718 0
x719 0
x720 0
x721 1
x722 0
x723 0
x724 1
x725 0
x726 0
x727 0
x728 0
x729 0
x730 0
x731 1
x732 1
x733 1
x734 0
x735 1
x736 1
x737 1
x738 0
x739 1
x740 0
x741 0
x742 1
x743 1
x744 1
x745 1
x746 1
x747 1
x748 0
x749 0
x750 0
x751 1
x752 1
x753 0
x754 0
x755 1
x756 0
x757 0
x758 1
x759 0
x760 0
x761 0
x762 1
x763 0
x764 0
x765 0
x766 1
x767 1
x768 1
x769 0
x770 1
x771 1
x772 1
x773 0
x774 1
x775 1
x776 0
x777 1
x778 1
x779 1
x780 1
x781 1
x782 1
x783 0
x784 0
x785 1
x786 1
x787 1
x788 0
x789 1
x790 1
x791 1
x792 0
x793 1
x794 1
x795 0
x796 1
x797 1
x798 1
x799 1
x800 0
x801 1
x802 0
x803 1
x804 0
x805 1
x806 1
x807 0
x808 1
x809 1
x810 1
x811 0
x812 1
x813 1
x814 1
x815 1
x816 1
x817 0
x818 1
x819 1
x820 1
x821 1
x822 0
x823 1
x824 1
x825 0
x826 1
x827 1
x828 0
x829 1
x830 1
x831 1
x832 0
x833 1
x834 1
x835 1
x836 1
x837 1
x838 0
x839 1
x840 0
x841 1
x842 1
x843 0
x844 1
x845 1
x846 1
x847 0
x848 1
x849 1
x850 0
x851 1
x852 1
x853 0
x854 0
x855 1
x856 1
x857 1
x858 1
x859 1
x860 0
x861 1
x862 1
x863 1
x864 1
x865 0
x866 1
x867 1
x868 1
x869 1
x870 1
x871 1
x872 0
x873 1
x874 0
x875 0
x876 0
x877 1
x878 0
x879 0
x880 0
x881 0
x882 0
x883 1
x884 0
x885 0
x886 1
x887 0
x888 1
x889 0
x890 0
x891 0
x892 0
x893 0
x894 0
x895 0
x896 1
x897 1
x898 1
x899 1
x900 1
x901 1
x902 1
x903 0
x904 1
x905 0
x906 1
x907 1
x908 0
x909 1
x910 1
x911 1
x912 0
x913 1
x914 1
x915 1
x916 1
x917 1
x918 0
x919 0
x920 0
x921 1
x922 1
x923 1
x924 1
x925 1
x926 1
x927 1
x928 0
x929 0
x930 1
x931 1
x932 1
x933 0
x934 1
x935 1
x936 1
x937 0
x938 1
x939 1
x940 1
x941 1
x942 1
x943 0
x944 1
x945 1
x946 1
x947 0
x948 0
x949 0
x950 1
x951 0
x952 0
x953 0
x954 1
x955 0
x956 0
x957 1
x958 0
x959 1
x960 0
x961 0
x962 0
x963 1
x964 0
x965 0
x966 0
x967 0
x968 0
x969 1
x970 0
x971 0
x972 0
x973 0
x974 1
x975 1
x976 1
x977 1
x978 1
x979 1
x980 1
x981 0
x982 1
x983 1
x984 1
x985 1
x986 0
x987 1
x988 1
x989 1
x990 0
x991 1
x992 1
x993 1
x994 1
x995 1
x996 0
x997 1
x998 1
x999 0
x1000 1
x1001 1
x1002 0
x1003 0
x1004 1
x1005 0
x1006 0
x1007 0
x1008 1
x1009 0
x1010 0
x1011 1
x1012 0
x1013 0
x1014 0
x1015 0
x1016 1
x1017 0
x1018 1
x1019 0
x1020 0
x1021 0
x1022 0
x1023 0
x1024 1
x1025 0
x1026 0
x1027 1
x1028 0
x1029 0
x1030 1
x1031 1
x1032 1
x1033 0
x1034 1
x1035 1
x1036 1
x1037 0
x1038 1
x1039 1
x1040 1
x1041 1
x1042 1
x1043 1
x1044 1
x1045 0
x1046 1
x1047 0
x1048 1
x1049 1
x1050 1
x1051 1
x1052 1
x1053 0
x1054 1
x1055 1
x1056 0
x1057 1
x1058 0
x1059 0
x1060 1
x1061 1
x1062 1
x1063 0
x1064 1
x1065 1
x1066 1
x1067 0
x1068 1
x1069 1
x1070 1
x1071 0
x1072 1
x1073 1
x1074 1
x1075 0
x1076 1
x1077 0
x1078 1
x1079 1
x1080 1
x1081 1
x1082 1
x1083 0
x1084 1
x1085 1
x1086 0
x1087 1
x1088 0
x1089 1
x1090 0
x1091 1
x1092 1
x1093 1
x1094 0
x1095 1
x1096 0
x1097 1
x1098 0
x1099 1
x1100 1
x1101 1
x1102 1
x1103 1
x1104 1
x1105 1
x1106 0
x1107 1
x1108 0
x1109 1
x1110 1
x1111 1
x1112 1
x1113 1
x1114 0
x1115 1
x1116 1
x1117 0
x1118 1
x1119 0
x1120 1
x1121 1
x1 1
x2 0
x3 0
x4 0
x5 1
x6 0
x7 1
x8 0
x9 0
x10 1
x11 0
x12 0
x13 0
x14 0
x15 0
x16 1
x17 0
x18 0
x19 0
x20 1
x21 0
x22 1
x23 0
x24 0
x25 0
x26 0
x27 0
x28 0
x29 1
x30 0
x31 1
x32 0
x33 0
x34 1
x35 0
x36 0
x37 0
x38 0
x39 0
x40 1
x41 0
x42 0
x43 1
x44 0
x45 0
x46 0
x47 0
x48 0
x49 1
x50 0
x51 1
x52 0
x53 0
x54 0
x55 0
x56 0
x57 1
x58 0
x59 0
x60 1
x61 0
x62 1
x63 0
x64 0
x65 0
